3 3 2
30 0 4 2 33 0 40 1 18 2 83 0 16 2 89 1 11 2 74 1 50 0 9 1 66 0 26 1 62 2 80 0 84 2 61 0 85 1 84 0 92 2 36 1 20 0 89 1 28 2 1 0 62 1 24 2 54 0 44 2 72 
30 1 70 0 28 1 71 2 92 1 11 0 24 2 56 1 87 2 83 0 50 1 81 2 19 1 1 2 42 0 7 2 18 1 90 2 37 0 40 1 64 0 57 2 14 1 1 2 60 0 84 2 14 0 98 2 21 0 14 2 28 
30 0 34 1 72 0 19 1 58 0 22 2 64 0 29 2 95 0 45 1 66 2 20 1 35 0 96 1 90 0 92 2 43 0 79 2 43 0 79 1 4 0 32 2 4 0 76 1 97 2 8 1 78 2 3 1 44 0 58 1 63 

-------------
